; benchmark generated from python API
(set-info :status unknown)
(declare-fun strlen_72_64 () (_ BitVec 64))
(declare-fun args_0_8 () (_ BitVec 8))
(declare-fun strlen_75_64 () (_ BitVec 64))
(declare-fun args_1_8 () (_ BitVec 8))
(declare-fun sigaction_oldact_171_1216 () (_ BitVec 1216))
(declare-fun sigaction_oldact_175_1216 () (_ BitVec 1216))
(declare-fun sigaction_oldact_185_1216 () (_ BitVec 1216))
(declare-fun sigaction_oldact_201_1216 () (_ BitVec 1216))
(declare-fun sigaction_oldact_235_1216 () (_ BitVec 1216))
(declare-fun sigaction_oldact_293_1216 () (_ BitVec 1216))
(declare-fun sigaction_oldact_419_1216 () (_ BitVec 1216))
(declare-fun sigaction_oldact_646_1216 () (_ BitVec 1216))
(declare-fun sigaction_oldact_1076_1216 () (_ BitVec 1216))
(declare-fun sigaction_oldact_2042_1216 () (_ BitVec 1216))
(assert
 (let (($x351 (= (_ bv1 64) strlen_72_64)))
 (not $x351)))
(assert
 (let ((?x82 (bvadd (_ bv576460752303357824 64) strlen_72_64)))
 (let (($x69 (= (_ bv0 8) args_0_8)))
 (let ((?x46 (ite $x69 (_ bv576460752303357824 64) (_ bv576460752303357825 64))))
 (= ?x46 ?x82)))))
(assert
 (let (($x347 (= (_ bv0 8) args_1_8)))
 (let ((?x355 (ite $x347 (_ bv576460752303357826 64) (_ bv576460752303357827 64))))
 (let ((?x356 (bvsub ?x355 (_ bv576460752303357826 64))))
 (= ?x356 strlen_75_64)))))
(assert
 (let ((?x1831 ((_ extract 127 120) sigaction_oldact_171_1216)))
 (let ((?x2319 (bvand ?x1831 (_ bv4 8))))
 (= (_ bv0 8) ?x2319))))
(assert
 (let ((?x2264 ((_ extract 127 120) sigaction_oldact_175_1216)))
 (let ((?x2349 (bvand ?x2264 (_ bv4 8))))
 (and (distinct (_ bv0 8) ?x2349) true))))
(assert
 (let ((?x2741 ((_ extract 127 120) sigaction_oldact_185_1216)))
 (let ((?x2766 (bvand ?x2741 (_ bv4 8))))
 (and (distinct (_ bv0 8) ?x2766) true))))
(assert
 (let ((?x3722 ((_ extract 127 120) sigaction_oldact_201_1216)))
 (let ((?x3747 (bvand ?x3722 (_ bv4 8))))
 (and (distinct (_ bv0 8) ?x3747) true))))
(assert
 (let ((?x5856 ((_ extract 127 120) sigaction_oldact_235_1216)))
 (let ((?x5876 (bvand ?x5856 (_ bv4 8))))
 (= (_ bv0 8) ?x5876))))
(assert
 (let ((?x9759 ((_ extract 127 120) sigaction_oldact_293_1216)))
 (let ((?x9769 (bvand ?x9759 (_ bv4 8))))
 (and (distinct (_ bv0 8) ?x9769) true))))
(assert
 (let ((?x19499 ((_ extract 127 120) sigaction_oldact_419_1216)))
 (let ((?x19239 (bvand ?x19499 (_ bv4 8))))
 (= (_ bv0 8) ?x19239))))
(assert
 (let ((?x34910 ((_ extract 127 120) sigaction_oldact_646_1216)))
 (let ((?x34920 (bvand ?x34910 (_ bv4 8))))
 (= (_ bv0 8) ?x34920))))
(assert
 (let ((?x61661 ((_ extract 127 120) sigaction_oldact_1076_1216)))
 (let ((?x61669 (bvand ?x61661 (_ bv4 8))))
 (and (distinct (_ bv0 8) ?x61669) true))))
(assert
 (let ((?x116556 ((_ extract 127 120) sigaction_oldact_2042_1216)))
 (let ((?x116585 (bvand ?x116556 (_ bv4 8))))
 (and (distinct (_ bv0 8) ?x116585) true))))
(minimize args_0_8)
(maximize sigaction_oldact_175_1216)
(maximize sigaction_oldact_171_1216)
(minimize args_1_8)
(minimize sigaction_oldact_185_1216)
(minimize sigaction_oldact_293_1216)
(minimize strlen_75_64)
(maximize sigaction_oldact_293_1216)
(minimize sigaction_oldact_201_1216)
(maximize sigaction_oldact_201_1216)
(check-sat)
(get-objectives)
